p cnf 20 10
e 1 0
a 2 3 0
e 4 5 0
a 6 7 8 9 0
e 10 11 12 13 14 15 0
a 16 17 18 19 0
e 20 0
20 -19 7 0
-12 2 -9 16 0
11 -3 -1 0
10 3 14 -15 0
11 -14 7 0
-6 -4 -19 13 0
-15 5 -10 1 4 0
9 16 -7 -14 0
18 -14 7 -10 16 0
-19 14 0
